Route #1: 1 7 38 33 10 12 48 37 1 
Route #2: 1 1 52 46 8 27 56 29 47 17 30 1 
Route #3: 1 62 54 21 34 40 11 9 3 1 
Route #4: 1 43 26 41 16 13 61 22 24 1 
Route #5: 1 49 25 39 57 20 32 1 
Route #6: 1 31 50 36 35 19 1 
Route #7: 1 18 55 51 59 14 4 5 1 
Route #8: 1 23 42 63 2 53 45 1 
Route #9: 1 28 60 15 6 58 44 1 

Cost 1493.11
Time 0.6347


 * Another infos *

 Iterations: 64 Time: 0.6347 sec - 0.0106 min - 0.0002 horas
0.0000 h 0.0106 min
Problem dimension: 64
